Problem:    
Rows:       248
Columns:    89 (72 integer, 72 binary)
Non-zeros:  820
Status:     INTEGER OPTIMAL
Objective:  value = 146.6674 (MINimum)

   No.   Row name        Activity     Lower bound   Upper bound
------ ------------    ------------- ------------- -------------
     1 r.5                   2146.67             0               
     2 r.6                  -1908.74      -1979.18               
     3 r.7                   146.667             0               
     4 r.8                  -1815.91      -1962.58               
     5 r.9                   146.667             0               
     6 r.10                 -8.34755      -1975.99               
     7 r.11                  2146.67             0               
     8 r.12                 -1954.35      -1959.59               
     9 r.13                  2146.67             0               
    10 r.14                 -1932.56         -1966               
    11 r.15                  146.667             0               
    12 r.16                  -58.677      -1936.89               
    13 r.17                  2146.67             0               
    14 r.18                 -1978.57      -1980.99               
    15 r.19                  146.667             0               
    16 r.20                  -49.677      -1963.84               
    17 r.21                  146.667             0               
    18 r.22                   8.4265      -1983.23               
    19 r.23                  2146.67             0               
    20 r.24                 -1922.87      -1968.52               
    21 r.25                  2146.67             0               
    22 r.26                 -1853.33      -1947.59               
    23 r.27                  146.667             0               
    24 r.28                   5.2432      -1933.08               
    25 r.29                  146.667             0               
    26 r.30                  70.4356      -1947.31               
    27 r.31                  2146.67             0               
    28 r.32                 -1853.33      -1933.46               
    29 r.33                  2146.67             0               
    30 r.34                 -1997.76      -1997.76               
    31 r.35                  146.667             0               
    32 r.36                   2.2432      -1967.78               
    33 r.37                        1             1             = 
    34 r.38                        1             1             = 
    35 r.39                        1             1             = 
    36 r.40                        1             1             = 
    37 r.41                        1             1             = 
    38 r.42                        1             1             = 
    39 r.43                        1             1             = 
    40 r.44                        1             1             = 
    41 r.45                   1900.4       24.0126               
    42 r.46                  -1900.4      -1979.18               
    43 r.47                  1861.56       40.4084               
    44 r.48                 -1861.56      -1962.58               
    45 r.49                  1976.18       34.0009               
    46 r.50                 -1979.18      -1979.18               
    47 r.51                  1757.23       63.1116               
    48 r.52                 -1754.23      -1962.58               
    49 r.53                  1936.18       19.0082               
    50 r.54                 -1942.18      -1979.18               
    51 r.55                  1760.23       36.1622               
    52 r.56                 -1754.23      -1962.58               
    53 r.57                  1917.17        16.774               
    54 r.58                 -1917.17      -1979.18               
    55 r.59                  1893.04       31.4776               
    56 r.60                 -1893.04      -1962.58               
    57 r.61                 -1944.59      -1944.59               
    58 r.62                 -86.0134      -1930.08               
    59 r.63                 -37.4225      -1944.59               
    60 r.64                  1821.15      -1930.08               
    61 r.65                  1979.18       52.6866               
    62 r.66                 -1979.18      -1979.18               
    63 r.67                  1962.58       66.5382               
    64 r.68                 -1962.58      -1962.58               
    65 r.69                 -1910.99      -1976.18               
    66 r.70                 -1818.15      -1959.58               
    67 r.71                 -1910.99      -1976.18               
    68 r.72                 -1818.15      -1959.58               
    69 r.73                  99.6041        20.821               
    70 r.74                 -99.6041      -1975.99               
    71 r.75                  138.438       37.4225               
    72 r.76                 -138.438      -1959.59               
    73 r.77                  75.7831       34.0009               
    74 r.78                 -78.7831      -1975.99               
    75 r.79                  1895.67       63.1116               
    76 r.80                 -1892.67      -1959.59               
    77 r.81                  35.7822       19.0082               
    78 r.82                 -41.7822      -1975.99               
    79 r.83                  1898.67       36.1622               
    80 r.84                 -1892.67      -1959.59               
    81 r.85                   16.774        16.774               
    82 r.86                  -16.774      -1975.99               
    83 r.87                  31.4776       31.4776               
    84 r.88                 -31.4776      -1959.59               
    85 r.89                  155.015       52.4108               
    86 r.90                 -155.015      -1975.99               
    87 r.91                  1959.59       66.9202               
    88 r.92                 -1959.59      -1959.59               
    89 r.93                  78.7831      -1944.31               
    90 r.94                 -1844.99      -1930.46               
    91 r.95                   24.784      -1944.31               
    92 r.96                 -1898.98      -1930.46               
    93 r.97                 -10.5907      -1972.99               
    94 r.98                 -1956.59      -1956.59               
    95 r.99                 -10.5907      -1972.99               
    96 r.100                -1956.59      -1956.59               
    97 r.101                  20.821        20.821               
    98 r.102                 -20.821         -1966               
    99 r.103                 245.767       37.4225               
   100 r.104                -245.767      -1936.89               
   101 r.105                 1921.22       24.0126               
   102 r.106                -1921.22         -1966               
   103 r.107                 107.329       40.4084               
   104 r.108                -107.329      -1936.89               
   105 r.109                   -1963         -1963               
   106 r.110                -95.1117      -1933.89               
   107 r.111                -1867.89         -1963               
   108 r.112                       0      -1933.89               
   109 r.113                 1937.99        16.774               
   110 r.114                -1937.99         -1966               
   111 r.115                 138.806       31.4776               
   112 r.116                -138.806      -1936.89               
   113 r.117                 76.2318       52.4108               
   114 r.118                -76.2318         -1966               
   115 r.119                 66.9202       66.9202               
   116 r.120                -66.9202      -1936.89               
   117 r.121                       0      -1944.31               
   118 r.122                -1923.77      -1930.46               
   119 r.123                 132.113      -1944.31               
   120 r.124                -1791.66      -1930.46               
   121 r.125                -1931.81         -1963               
   122 r.126                -63.9202      -1933.89               
   123 r.127                -1931.81         -1963               
   124 r.128                -63.9202      -1933.89               
   125 r.129                 57.8219        20.821               
   126 r.130                -57.8219      -1980.99               
   127 r.131                 245.767       37.4225               
   128 r.132                -245.767      -1963.84               
   129 r.133                 1958.22       24.0126               
   130 r.134                -1958.22      -1980.99               
   131 r.135                 107.329       40.4084               
   132 r.136                -107.329      -1963.84               
   133 r.137                   -1963         -1963               
   134 r.138                -95.1117      -1933.89               
   135 r.139                -1867.89         -1963               
   136 r.140                       0      -1933.89               
   137 r.141                 1974.99        16.774               
   138 r.142                -1974.99      -1980.99               
   139 r.143                 138.806       31.4776               
   140 r.144                -138.806      -1963.84               
   141 r.145                 113.233       52.4108               
   142 r.146                -113.233      -1980.99               
   143 r.147                 66.9202       66.9202               
   144 r.148                -66.9202      -1963.84               
   145 r.149                 37.0009      -1944.31               
   146 r.150                -1886.77      -1930.46               
   147 r.151                 132.113      -1944.31               
   148 r.152                -1791.66      -1930.46               
   149 r.153                -1968.81      -1974.99               
   150 r.154                -63.9202      -1957.84               
   151 r.155                -1968.81      -1974.99               
   152 r.156                -63.9202      -1957.84               
   153 r.157                 82.8301        20.821               
   154 r.158                -82.8301      -1983.23               
   155 r.159                 106.961       37.4225               
   156 r.160                -106.961      -1968.52               
   157 r.161                 1983.23       24.0126               
   158 r.162                -1983.23      -1983.23               
   159 r.163                 1968.52       40.4084               
   160 r.164                -1968.52      -1968.52               
   161 r.165                 59.0091       34.0009               
   162 r.166                -62.0091      -1983.23               
   163 r.167                 1864.19       63.1116               
   164 r.168                -1861.19      -1968.52               
   165 r.169                 19.0082       19.0082               
   166 r.170                -25.0082      -1983.23               
   167 r.171                 1867.19       36.1622               
   168 r.172                -1861.19      -1968.52               
   169 r.173                -1861.76      -1944.59               
   170 r.174                 -3.1833      -1930.08               
   171 r.175                -1930.46      -1944.59               
   172 r.176                 -71.886      -1930.08               
   173 r.177                 62.0091      -1944.31               
   174 r.178                -1861.76      -1930.46               
   175 r.179                 -6.6936      -1944.31               
   176 r.180                -1930.46      -1930.46               
   177 r.181                  6.1833      -1977.23               
   178 r.182                -1925.11      -1962.52               
   179 r.183                  6.1833      -1977.23               
   180 r.184                -1925.11      -1962.52               
   181 r.185                -1944.59      -1944.59               
   182 r.186                -86.0134      -1930.08               
   183 r.187                -37.4225      -1944.59               
   184 r.188                 1821.15      -1930.08               
   185 r.189                 1844.99       24.0126               
   186 r.190                -1844.99      -1947.59               
   187 r.191                 40.4084       40.4084               
   188 r.192                -40.4084      -1933.08               
   189 r.193                 1920.77       34.0009               
   190 r.194                -1923.77      -1947.59               
   191 r.195                 1936.08       63.1116               
   192 r.196                -1933.08      -1933.08               
   193 r.197                 1880.77       19.0082               
   194 r.198                -1886.77      -1947.59               
   195 r.199                 1939.08       36.1622               
   196 r.200                -1933.08      -1933.08               
   197 r.201                -1861.76      -1944.59               
   198 r.202                 -3.1833      -1930.08               
   199 r.203                -1930.46      -1944.59               
   200 r.204                 -71.886      -1930.08               
   201 r.205                 1923.77       52.6866               
   202 r.206                -1923.77      -1947.59               
   203 r.207                 141.424       66.5382               
   204 r.208                -141.424      -1933.08               
   205 r.209                  20.821        20.821               
   206 r.210                 -20.821      -1947.31               
   207 r.211                 37.4225       37.4225               
   208 r.212                -37.4225      -1933.46               
   209 r.213                 78.7831      -1944.31               
   210 r.214                -1844.99      -1930.46               
   211 r.215                  24.784      -1944.31               
   212 r.216                -1898.98      -1930.46               
   213 r.217                       0      -1944.31               
   214 r.218                -1923.77      -1930.46               
   215 r.219                 132.113      -1944.31               
   216 r.220                -1791.66      -1930.46               
   217 r.221                 37.0009      -1944.31               
   218 r.222                -1886.77      -1930.46               
   219 r.223                 132.113      -1944.31               
   220 r.224                -1791.66      -1930.46               
   221 r.225                 62.0091      -1944.31               
   222 r.226                -1861.76      -1930.46               
   223 r.227                 -6.6936      -1944.31               
   224 r.228                -1930.46      -1930.46               
   225 r.229                 76.2318       52.4108               
   226 r.230                -76.2318      -1947.31               
   227 r.231                 1858.58       66.9202               
   228 r.232                -1858.58      -1933.46               
   229 r.233                -1910.99      -1976.18               
   230 r.234                -1818.15      -1959.58               
   231 r.235                -1910.99      -1976.18               
   232 r.236                -1818.15      -1959.58               
   233 r.237                -10.5907      -1972.99               
   234 r.238                -1956.59      -1956.59               
   235 r.239                -10.5907      -1972.99               
   236 r.240                -1956.59      -1956.59               
   237 r.241                -1931.81         -1963               
   238 r.242                -63.9202      -1933.89               
   239 r.243                -1931.81         -1963               
   240 r.244                -63.9202      -1933.89               
   241 r.245                -1968.81      -1974.99               
   242 r.246                -63.9202      -1957.84               
   243 r.247                -1968.81      -1974.99               
   244 r.248                -63.9202      -1957.84               
   245 r.249                  6.1833      -1977.23               
   246 r.250                -1925.11      -1962.52               
   247 r.251                  6.1833      -1977.23               
   248 r.252                -1925.11      -1962.52               

   No. Column name       Activity     Lower bound   Upper bound
------ ------------    ------------- ------------- -------------
     1 tt                    146.667             0               
     2 s_1_1        *              1             0             1 
     3 t_1_1                 55.4108             0               
     4 s_1_6        *              1             0             1 
     5 s_2_1        *              0             0             1 
     6 t_2_1                 1962.58             0               
     7 s_2_6        *              0             0             1 
     8 s_1_2        *              0             0             1 
     9 t_1_2                 155.015             0               
    10 s_1_7        *              0             0             1 
    11 s_2_2        *              1             0             1 
    12 t_2_2                 101.016             0               
    13 s_2_7        *              1             0             1 
    14 s_1_3        *              1             0             1 
    15 t_1_3                 76.2318             0               
    16 s_2_3        *              0             0             1 
    17 t_2_3                 208.344             0               
    18 s_1_4        *              1             0             1 
    19 t_1_4                 113.233             0               
    20 s_2_4        *              0             0             1 
    21 t_2_4                 208.344             0               
    22 s_1_5        *              0             0             1 
    23 t_1_5                 138.241             0               
    24 s_2_5        *              1             0             1 
    25 t_2_5                 69.5382             0               
    26 t_1_6                       0             0               
    27 t_2_6                 141.424             0               
    28 t_1_7                 76.2318             0               
    29 t_2_7                       0             0               
    30 s_1_8        *              1             0             1 
    31 t_1_8                 144.424             0               
    32 s_2_8        *              0             0             1 
    33 t_2_8                 144.424             0               
    34 u_1_1_2      *              1             0             1 
    35 u_2_1_2      *              0             0             1 
    36 u_1_1_3      *              1             0             1 
    37 u_2_1_3      *              0             0             1 
    38 u_1_1_4      *              1             0             1 
    39 u_2_1_4      *              0             0             1 
    40 u_1_1_5      *              1             0             1 
    41 u_2_1_5      *              0             0             1 
    42 u_1_1_7      *              1             0             1 
    43 u_2_1_7      *              0             0             1 
    44 u_1_2_1      *              0             0             1 
    45 u_2_2_1      *              1             0             1 
    46 u_1_2_3      *              0             0             1 
    47 u_2_2_3      *              1             0             1 
    48 u_1_2_4      *              0             0             1 
    49 u_2_2_4      *              1             0             1 
    50 u_1_2_5      *              0             0             1 
    51 u_2_2_5      *              0             0             1 
    52 u_1_2_6      *              0             0             1 
    53 u_2_2_6      *              1             0             1 
    54 u_1_3_1      *              0             0             1 
    55 u_2_3_1      *              1             0             1 
    56 u_1_3_2      *              1             0             1 
    57 u_2_3_2      *              0             0             1 
    58 u_1_3_5      *              1             0             1 
    59 u_2_3_5      *              0             0             1 
    60 u_1_3_6      *              0             0             1 
    61 u_2_3_6      *              0             0             1 
    62 u_1_4_1      *              0             0             1 
    63 u_2_4_1      *              1             0             1 
    64 u_1_4_2      *              1             0             1 
    65 u_2_4_2      *              0             0             1 
    66 u_1_4_5      *              1             0             1 
    67 u_2_4_5      *              0             0             1 
    68 u_1_4_6      *              0             0             1 
    69 u_2_4_6      *              0             0             1 
    70 u_1_5_1      *              0             0             1 
    71 u_2_5_1      *              1             0             1 
    72 u_1_5_2      *              1             0             1 
    73 u_2_5_2      *              1             0             1 
    74 u_1_5_3      *              0             0             1 
    75 u_2_5_3      *              1             0             1 
    76 u_1_5_4      *              0             0             1 
    77 u_2_5_4      *              1             0             1 
    78 u_1_6_2      *              1             0             1 
    79 u_2_6_2      *              0             0             1 
    80 u_1_6_3      *              1             0             1 
    81 u_2_6_3      *              1             0             1 
    82 u_1_6_4      *              1             0             1 
    83 u_2_6_4      *              1             0             1 
    84 u_1_6_7      *              1             0             1 
    85 u_2_6_7      *              0             0             1 
    86 u_1_7_1      *              0             0             1 
    87 u_2_7_1      *              1             0             1 
    88 u_1_7_6      *              0             0             1 
    89 u_2_7_6      *              1             0             1 

Integer feasibility conditions:

KKT.PE: max.abs.err = 0.00e+00 on row 0
        max.rel.err = 0.00e+00 on row 0
        High quality

KKT.PB: max.abs.err = 4.55e-13 on row 88
        max.rel.err = 1.10e-14 on row 187
        High quality

End of output
